30
59
8
68
65
87
10
94
76
40
79
0 1
0 19
0 24
1 2
1 25
2 14
3 8
3 9
3 13
3 18
3 21
4 5
4 21
5 6
5 8
6 7
7 8
7 9
7 16
7 18
7 21
8 9
8 24
9 13
9 17
9 18
9 19
9 28
9 29
10 11
10 18
10 22
10 29
11 19
11 20
11 26
12 24
13 15
13 24
13 25
14 15
14 18
14 26
15 16
15 23
15 24
16 21
17 23
17 25
17 27
18 22
18 29
19 29
20 28
21 24
21 29
22 26
24 27
26 29
0 17 29 3
11 20 4 9
15 24 5 18
27 19 10 26
12 23 7 22
1 13 25 16
6 21 28 8
2 14
